n_res = 4;
rc = [ 19, 22, 20, 20 ];
n_tasks = 30;
d = [ 9, 3, 3, 8, 3, 9, 1, 8, 6, 5, 10, 4, 9, 2, 4, 9, 9, 1, 4, 6, 7, 4, 2, 6, 6, 6, 5, 3, 5, 8 ];
rr = [| 2, 4, 0, 4, 8, 6, 5, 3, 0, 1, 0, 0, 0, 4, 0, 10, 3, 0, 9, 1, 4, 10, 9, 7, 0, 1, 5, 1, 3, 3
      | 5, 0, 4, 4, 8, 9, 3, 1, 10, 6, 3, 6, 6, 1, 5, 5, 3, 9, 0, 9, 0, 0, 0, 0, 0, 1, 8, 0, 0, 1
      | 2, 6, 8, 3, 9, 0, 0, 5, 4, 0, 9, 2, 0, 7, 0, 10, 0, 4, 4, 7, 1, 3, 5, 0, 6, 3, 6, 0, 2, 6
      | 1, 3, 0, 6, 4, 3, 4, 1, 7, 7, 7, 2, 10, 8, 0, 2, 1, 3, 4, 0, 1, 0, 7, 10, 3, 1, 7, 5, 8, 9 |];
suc = [ { 2 }, 
        { 1 }, 
        { 4 }, 
        { 3 }, 
        { 6 }, 
        { 5 }, 
        { 8 }, 
        { 7 }, 
        { 10 }, 
        { 9 }, 
        { 12 }, 
        { 11 }, 
        { 14 }, 
        { 13 }, 
        { 16 }, 
        { 15 }, 
        { 18 }, 
        { 17 }, 
        { 20 }, 
        { 19 }, 
        { 22 }, 
        { 21 }, 
        { 24 }, 
        { 23 }, 
        { 26 }, 
        { 25 }, 
        { 28 }, 
        { 27 }, 
        { 30 }, 
        { 29 }]; 
